qbf_easy_train/easy_2273_SAT.qdimacs
p cnf 23 55
a 20 5 14 0
e 1 2 3 4 6 7 8 9 10 11 12 13 15 16 17 18 19 21 22 23 0
2 3 -4 0
-2 -3 -4 0
2 -3 4 0
-2 3 4 0
5 -1 0
5 4 0
1 -4 -5 0
-6 -7 0
6 -7 0
-8 -5 0
-8 7 0
5 -7 8 0
10 9 0
10 6 0
-9 -6 -10 0
-13 11 0
-13 12 0
-11 -12 13 0
-15 -14 0
-15 6 0
14 -6 15 0
-15 -12 -16 0
15 12 -16 0
-15 12 16 0
15 -12 16 0
-15 14 -17 0
15 -14 -17 0
-15 -14 17 0
15 14 17 0
18 -16 0
18 -17 0
16 17 -18 0
19 -13 0
19 18 0
13 -18 -19 0
20 10 0
20 19 0
-10 -19 -20 0
-2 15 -21 0
2 -15 -21 0
-2 -15 21 0
2 15 21 0
22 -20 0
22 -21 0
20 21 -22 0
8 22 -23 0
-8 -22 -23 0
8 -22 23 0
-8 22 23 0
-20 -11 12 10 0
7 -14 -18 12 0
-19 3 14 0
16 19 22 -18 -23 9 -20 11 0
5 10 20 -18 0
23 0
