sat_easy_train/easy_2273_SAT.dimacs
p cnf 89 278
3 -1 0
3 -2 0
1 2 -3 0
-6 4 0
-6 5 0
-4 -5 6 0
-6 -7 -8 0
6 7 -8 0
-6 7 8 0
6 -7 8 0
-9 -6 0
-9 8 0
6 -8 9 0
-3 9 -10 0
3 -9 -10 0
-3 -9 10 0
3 9 10 0
-12 1 0
-12 -11 0
-1 11 12 0
-13 10 0
-13 -12 0
-10 12 13 0
14 13 0
14 -12 0
-13 12 -14 0
16 -13 0
16 -15 0
13 15 -16 0
-17 -15 0
-17 -11 0
15 11 17 0
9 17 -18 0
-9 -17 -18 0
9 -17 18 0
-9 17 18 0
-19 16 0
-19 -18 0
-16 18 19 0
7 -20 -21 0
-7 20 -21 0
7 20 21 0
-7 -20 21 0
21 -22 0
-21 -22 0
24 -15 -25 0
-24 15 -25 0
24 15 25 0
-24 -15 25 0
-26 6 0
-26 -25 0
-6 25 26 0
-23 26 -27 0
23 -26 -27 0
-23 -26 27 0
23 26 27 0
30 29 0
30 20 0
-29 -20 -30 0
-30 31 0
30 31 0
32 -28 0
32 -31 0
28 31 -32 0
-33 -27 0
-33 32 0
27 -32 33 0
34 22 0
34 -33 0
-22 33 -34 0
-35 -19 0
-35 -34 0
19 34 35 0
36 -14 0
36 35 0
14 -35 -36 0
-31 5 -37 0
31 -5 -37 0
-31 -5 37 0
31 5 37 0
38 -15 0
38 37 0
15 -37 -38 0
17 -7 -39 0
-17 7 -39 0
17 7 39 0
-17 -7 39 0
40 -26 0
40 39 0
26 -39 -40 0
-41 10 0
-41 40 0
-10 -40 41 0
42 38 0
42 41 0
-38 -41 -42 0
-43 29 0
-43 6 0
-29 -6 43 0
43 17 -44 0
-43 -17 -44 0
43 -17 44 0
-43 17 44 0
12 -44 -45 0
-12 44 -45 0
12 44 45 0
-12 -44 45 0
-42 -45 -46 0
42 45 -46 0
-42 45 46 0
42 -45 46 0
-47 -4 0
-47 -23 0
4 23 47 0
-48 4 0
-48 -3 0
-4 3 48 0
-47 -48 -49 0
47 48 -49 0
-47 48 49 0
47 -48 49 0
51 30 0
51 40 0
-30 -40 -51 0
52 50 0
52 51 0
-50 -51 -52 0
17 12 -54 0
-17 -12 -54 0
17 -12 54 0
-17 12 54 0
53 -54 -55 0
-53 54 -55 0
53 54 55 0
-53 -54 55 0
-57 55 0
-57 56 0
-55 -56 57 0
6 57 -58 0
-6 -57 -58 0
6 -57 58 0
-6 57 58 0
-52 58 -59 0
52 -58 -59 0
-52 -58 59 0
52 58 59 0
60 49 0
60 -59 0
-49 59 -60 0
46 60 -61 0
-46 -60 -61 0
46 -60 61 0
-46 60 61 0
62 -36 0
62 61 0
36 -61 -62 0
-23 6 -63 0
23 -6 -63 0
-23 -6 63 0
23 6 63 0
64 7 0
64 -31 0
-7 31 -64 0
64 20 -65 0
-64 -20 -65 0
64 -20 65 0
-64 20 65 0
63 -65 -66 0
-63 65 -66 0
63 65 66 0
-63 -65 66 0
67 -64 0
67 27 0
64 -27 -67 0
-68 67 0
-68 20 0
-67 -20 68 0
-69 31 0
-69 -30 0
-31 30 69 0
-70 -39 0
-70 2 0
39 -2 70 0
6 53 -71 0
-6 -53 -71 0
6 -53 71 0
-6 53 71 0
72 -70 0
72 -71 0
70 71 -72 0
-73 72 0
-73 -53 0
-72 53 73 0
-74 -69 0
-74 73 0
69 -73 74 0
-75 68 0
-75 74 0
-68 -74 75 0
-76 10 0
-76 -56 0
-10 56 76 0
-77 17 0
-77 -11 0
-17 11 77 0
-78 -28 0
-78 -77 0
28 77 78 0
80 78 0
80 -79 0
-78 79 -80 0
-81 -43 0
-81 -77 0
43 77 81 0
-82 80 0
-82 81 0
-80 -81 82 0
83 76 0
83 -82 0
-76 82 -83 0
84 -75 0
84 -83 0
75 83 -84 0
-66 84 -85 0
66 -84 -85 0
-66 -84 85 0
66 84 85 0
-86 12 0
-86 53 0
-12 -53 86 0
-4 86 -87 0
4 -86 -87 0
-4 -86 87 0
4 86 87 0
85 -87 -88 0
-85 87 -88 0
85 87 88 0
-85 -87 88 0
89 62 0
89 88 0
-62 -88 -89 0
-13 -48 -19 -74 0
-16 -49 0
65 3 -29 0
-18 61 -83 -73 22 -47 0
-12 75 -83 -52 0
-56 -45 89 35 0
30 37 -39 68 80 -48 0
14 76 0
-45 -2 64 40 -71 -80 0
52 79 4 74 -82 80 0
-44 -64 68 69 -8 87 0
-29 -58 0
23 87 -76 -20 -16 0
-89 82 -36 -55 -61 0
-38 11 71 82 -27 0
-49 11 78 27 0
69 -24 -40 0
-3 -13 43 73 0
-32 -12 -71 0
42 -76 9 83 3 0
56 20 -53 64 -62 0
18 83 65 -45 -58 23 0
-48 -68 -69 -62 0
32 -47 0
75 -61 -69 72 0
-2 29 -39 -45 -63 0
-25 26 0
87 42 2 18 0
-70 -29 0
82 -1 84 -30 0
10 50 -35 45 0
-10 -16 33 0
69 68 0
-71 -88 0
25 -56 -7 -66 0
-52 -49 -5 -11 -30 0
89 0
